\ LP format - for model browsing. Use MPS format to capture full model detail.
Minimize
  800 y_0 + 800 y_1 + 800 y_2 + 800 y_3 + 800 y_4 + 800 y_5 + 800 y_6
   + 800 y_7 + 800 y_8 + 800 y_9 + 800 y_10 + 800 y_11 + 800 y_12
   + 800 y_13 + 800 y_14 + 800 y_15 + 800 y_16 + 800 y_17 + 800 y_18
   + 800 y_19 + 800 y_20 + 800 y_21 + 800 y_22 + 800 y_23 + 800 y_24
   + 800 y_25 + 800 y_26 + 800 y_27 + 800 y_28 + 800 y_29 + 800 y_30
   + 800 y_31 + 800 y_32 + 800 y_33 + 800 y_34 + 800 y_35 + 800 y_36
   + 800 y_37 + 800 y_38 + 800 y_39 + 800 y_40 + 800 y_41 + 800 y_42
   + 800 y_43 + 800 y_44 + 800 y_45 + 800 y_46 + 800 y_47 + 800 y_48
   + 800 y_49 + 800 y_50 + 800 y_51 + 800 y_52 + 800 y_53 + 800 y_54
   + 800 y_55 + 800 y_56 + 800 y_57 + 800 y_58 + 800 y_59 + 800 y_60
   + 800 y_61 + 800 y_62 + 800 y_63 + 800 y_64 + 800 y_65 + 800 y_66
   + 800 y_67 + 800 y_68 + 800 y_69 + 800 y_70 + 800 y_71 + 800 y_72
   + 800 y_73 + 800 y_74 + 800 y_75 + 800 y_76 + 800 y_77 + 800 y_78
   + 800 y_79 + 800 y_80 + 800 y_81 + 800 y_82 + 800 y_83 + 800 y_84
   + 800 y_85 + 800 y_86 + 800 y_87 + 800 y_88 + 800 y_89 + 800 y_90
   + 800 y_91 + 800 y_92 + 800 y_93 + 800 y_94 + 4 x_8 + 4 x_9 + 8 x_10
   + 8 x_11 + 304 x_12 + 606 x_13 + 601 x_14 + 162 x_15 + 162 x_16
   + 154 x_17 + 1159 x_18 + 958 x_19 + 958 x_20 + 911 x_21 + 911 x_22
   + 1961 x_23 + 1961 x_24 + 11 x_25 + 11 x_26 + 8 x_27 + 8 x_28 + 604 x_29
   + 1205 x_30 + 268 x_31 + 268 x_32 + 750 x_33 + 958 x_34 + 610 x_35
   + 1210 x_36 + 608 x_37 + 608 x_38 + 1112 x_39 + 198 x_40 + 504 x_41
   + 6 x_42 + 6 x_43 + 267 x_44 + 267 x_45 + 1059 x_46 + 1059 x_47
   + 871 x_48 + 159 x_49 + 796 x_50 + 1396 x_51 + 1406 x_52 + 2 x_53
   + 2340 x_54 + 1338 x_55 + 1098 x_56 + 2304 x_57 + 902 x_58 + 1706 x_59
   + 2295 x_60 + 1098 x_61 + 1098 x_62 + 2050 x_63 + 2670 x_64 + 1006 x_65
   + 1006 x_66 + 1054 x_67 + 1659 x_68 + 1656 x_69 + 1630 x_70 + 1630 x_71
   + 1460 x_72 + 58 x_73 + 4 x_74 + 4 x_75 + 5 x_76 + 5 x_77 + x_78
   + 6 x_79 + 8 x_80 + 1200 x_81 + 3 x_82 + 3 x_83 + 6 x_94 + 6 x_95
   + 5 x_85 + 757 x_86 + 757 x_87 + 2459 x_88 + 2999 x_89 + 7 x_90 + 7 x_91
   + 56 x_92 + 56 x_93 + 457 x_96 + 457 x_97 + 545 x_98 + 4 x_99 + 4 x_100
   + 5 x_101 + 5 x_102 + 1104 x_103 + 457 x_104 + 458 x_105 + 454 x_106
   + 455 x_107 + 4 x_108 + 4 x_109 + 1449 x_110 + 547 x_111 + 2459 x_112
   + 1557 x_113 + 549 x_114 + 7 x_115 + 508 x_116 + 4 x_117
Subject To
 cover_lg_0: y_0 + x_0 + x_8 + x_9 + x_29 + x_30 + x_52 + x_53 + x_74
   + x_75 + x_96 + x_97 = 1
 cover_lg_1: y_1 + x_0 + x_8 + x_9 + x_29 + x_30 + x_52 + x_53 + x_74
   + x_75 + x_76 + x_77 + x_82 + x_83 + x_94 + x_95 + x_86 + x_87 + x_90
   + x_91 = 1
 cover_lg_2: y_2 + x_0 + x_8 + x_9 + x_29 + x_30 + x_42 + x_43 + x_52
   + x_53 + x_66 + x_74 + x_75 + x_83 = 1
 cover_lg_3: y_3 + x_0 + x_8 + x_9 + x_29 + x_30 + x_42 + x_43 + x_52
   + x_53 + x_66 + x_74 + x_75 + x_83 = 1
 cover_lg_4: y_4 + x_0 + x_8 + x_9 + x_29 + x_30 + x_31 + x_33 + x_34
   + x_35 + x_36 + x_37 + x_39 + x_42 + x_45 + x_46 + x_48 + x_50 + x_51
   = 1
 cover_lg_5: y_5 + x_0 + x_8 + x_9 + x_29 + x_31 + x_33 + x_34 + x_35
   + x_37 + x_39 + x_42 + x_45 + x_46 + x_48 + x_50 = 1
 cover_lg_6: y_6 + x_0 + x_53 + x_73 = 1
 cover_lg_7: y_7 + x_0 + x_53 + x_73 = 1
 cover_lg_8: y_8 + x_1 + x_10 + x_11 + x_21 + x_22 + x_25 + x_26 + x_31
   + x_32 + x_44 + x_45 + x_48 + x_49 = 1
 cover_lg_9: y_9 + x_1 + x_40 + x_49 + x_56 + x_61 + x_62 + x_63 + x_64
   + x_98 + x_103 + x_110 + x_111 + x_112 + x_113 + x_114 + x_116 = 1
 cover_lg_10: y_10 + x_1 + x_40 + x_49 + x_98 + x_103 + x_110 + x_111
   + x_112 + x_113 + x_114 + x_116 = 1
 cover_lg_11: y_11 + x_1 = 1
 cover_lg_12: y_12 + x_1 = 1
 cover_lg_13: y_13 + x_1 + x_10 + x_11 + x_31 + x_32 + x_54 + x_55 + x_76
   + x_77 + x_98 = 1
 cover_lg_14: y_14 + x_2 + x_78 + x_99 + x_100 + x_104 + x_105 + x_106
   + x_107 = 1
 cover_lg_15: y_15 + x_2 + x_78 + x_99 + x_100 + x_101 + x_102 + x_104
   + x_105 + x_106 + x_107 = 1
 cover_lg_16: y_16 + x_2 + x_12 + x_13 + x_18 + x_23 + x_24 + x_76 + x_78
   + x_80 + x_94 + x_85 + x_86 + x_90 = 1
 cover_lg_17: y_17 + x_2 + x_12 + x_13 + x_18 + x_23 + x_24 + x_76 + x_78
   + x_80 + x_94 + x_85 + x_86 + x_90 = 1
 cover_lg_18: y_18 + x_2 + x_12 + x_13 + x_18 + x_23 + x_24 + x_76 + x_78
   + x_80 + x_94 + x_85 + x_86 + x_90 = 1
 cover_lg_19: y_19 + x_2 + x_12 + x_13 + x_18 + x_23 + x_24 = 1
 cover_lg_20: y_20 + x_2 + x_12 + x_18 + x_24 + x_29 + x_30 + x_34 + x_35
   + x_36 + x_39 + x_48 + x_50 + x_51 = 1
 cover_lg_21: y_21 + x_2 + x_12 + x_18 + x_24 + x_29 + x_30 + x_34 + x_35
   + x_36 + x_39 + x_48 + x_50 + x_51 = 1
 cover_lg_22: y_22 + x_2 + x_12 + x_33 + x_34 + x_56 + x_78 + x_99 + x_100
   = 1
 cover_lg_23: y_23 + x_3 + x_35 + x_36 + x_57 + x_58 + x_79 + x_80 = 1
 cover_lg_24: y_24 + x_3 + x_10 + x_11 + x_12 + x_15 + x_16 + x_17 + x_18
   + x_19 + x_20 + x_21 + x_22 + x_25 + x_26 + x_28 + x_117 = 1
 cover_lg_25: y_25 + x_3 + x_10 + x_11 + x_12 + x_15 + x_16 + x_17 + x_18
   + x_19 + x_20 + x_21 + x_22 + x_25 + x_26 + x_28 + x_117 = 1
 cover_lg_26: y_26 + x_3 + x_11 + x_16 + x_19 + x_20 + x_22 + x_26 + x_57
   + x_58 + x_59 + x_60 + x_64 + x_68 + x_69 + x_72 + x_73 + x_79 + x_88
   + x_89 + x_93 + x_98 + x_110 + x_111 + x_112 + x_113 + x_114 + x_116
   = 1
 cover_lg_27: y_27 + x_3 + x_11 + x_16 + x_19 + x_20 + x_22 + x_26 + x_57
   + x_58 + x_59 + x_60 + x_64 + x_68 + x_69 + x_72 + x_73 + x_79 + x_88
   + x_89 + x_93 + x_98 + x_110 + x_111 + x_112 + x_113 + x_114 + x_116
   = 1
 cover_lg_28: y_28 + x_3 + x_10 + x_11 + x_15 + x_16 + x_19 + x_20 + x_21
   + x_22 + x_25 + x_26 + x_27 + x_28 + x_52 + x_53 + x_54 + x_57 + x_58
   + x_59 + x_60 + x_63 + x_64 + x_67 + x_68 + x_69 + x_72 + x_73 = 1
 cover_lg_29: y_29 + x_3 + x_10 + x_11 + x_15 + x_16 + x_19 + x_20 + x_21
   + x_22 + x_25 + x_26 + x_27 + x_28 + x_52 + x_53 + x_54 + x_57 + x_58
   + x_59 + x_60 + x_63 + x_64 + x_67 + x_68 + x_69 + x_72 + x_73 = 1
 cover_lg_30: y_30 + x_3 + x_8 + x_10 + x_11 + x_15 + x_16 + x_19 + x_21
   + x_22 + x_25 + x_26 + x_27 + x_28 + x_31 + x_33 + x_37 + x_42 + x_46
   = 1
 cover_lg_31: y_31 + x_3 + x_8 + x_10 + x_11 + x_15 + x_16 + x_19 + x_21
   + x_22 + x_25 + x_26 + x_27 + x_28 + x_31 + x_33 + x_37 + x_42 + x_46
   = 1
 cover_lg_32: y_32 + x_3 + x_8 + x_9 + x_15 + x_16 + x_21 + x_22 + x_23
   + x_24 + x_25 + x_26 + x_27 + x_28 + x_52 + x_57 + x_58 + x_61 + x_62
   + x_70 + x_71 + x_72 + x_96 + x_97 + x_101 + x_102 + x_104 + x_110
   + x_112 + x_114 + x_116 = 1
 cover_lg_33: y_33 + x_3 + x_8 + x_9 + x_15 + x_16 + x_21 + x_22 + x_23
   + x_24 + x_25 + x_26 + x_27 + x_28 + x_52 + x_57 + x_58 + x_61 + x_62
   + x_70 + x_71 + x_72 + x_96 + x_97 + x_101 + x_102 + x_104 + x_110
   + x_112 + x_114 + x_116 = 1
 cover_lg_34: y_34 + x_13 + x_14 + x_37 + x_38 + x_59 + x_60 + x_81 + x_103
   = 1
 cover_lg_35: y_35 + x_50 + x_51 + x_57 + x_58 + x_59 + x_60 + x_68 + x_69
   + x_72 + x_73 + x_81 + x_88 + x_89 + x_92 + x_93 = 1
 cover_lg_36: y_36 + x_50 + x_51 + x_56 + x_57 + x_58 + x_59 + x_60 + x_61
   + x_62 + x_63 + x_64 + x_68 + x_69 + x_72 + x_73 + x_81 + x_88 + x_89
   + x_92 + x_93 = 1
 cover_lg_37: y_37 + x_40 + x_49 + x_54 + x_55 + x_56 + x_61 + x_62 + x_63
   + x_67 + x_70 + x_71 + x_81 + x_92 + x_103 = 1
 cover_lg_38: y_38 + x_30 + x_36 + x_51 + x_81 = 1
 cover_lg_39: y_39 + x_13 + x_23 + x_52 + x_57 + x_60 + x_64 + x_72 + x_81
   = 1
 cover_lg_40: y_40 + x_13 + x_23 + x_52 + x_55 + x_57 + x_62 + x_64 + x_71
   + x_72 + x_76 + x_77 + x_81 + x_94 + x_95 + x_98 + x_103 + x_104 + x_108
   + x_110 + x_111 + x_112 + x_113 + x_114 + x_116 = 1
 cover_lg_41: y_41 + x_13 + x_37 + x_38 + x_59 + x_60 + x_81 + x_103 = 1
 cover_lg_42: y_42 + x_4 + x_40 + x_56 + x_61 + x_62 + x_63 + x_64 + x_82
   + x_83 + x_94 + x_95 = 1
 cover_lg_43: y_43 + x_4 + x_40 + x_56 + x_61 + x_62 + x_63 + x_64 + x_96
   + x_97 + x_98 + x_110 + x_111 + x_114 + x_115 = 1
 cover_lg_44: y_44 + x_4 + x_14 = 1
 cover_lg_45: y_45 + x_4 = 1
 cover_lg_46: y_46 + x_4 + x_74 + x_75 + x_77 + x_82 + x_83 + x_95 + x_87
   + x_88 + x_89 + x_91 + x_98 + x_103 + x_104 + x_108 + x_110 + x_111
   + x_112 + x_113 + x_114 + x_116 = 1
 cover_lg_47: y_47 + x_4 + x_74 + x_80 + x_82 + x_83 + x_85 + x_86 + x_87
   + x_88 + x_89 + x_90 + x_91 = 1
 cover_lg_48: y_48 + x_4 + x_74 + x_80 + x_82 + x_83 + x_85 + x_86 + x_87
   + x_88 + x_89 + x_90 + x_91 = 1
 cover_lg_49: y_49 + x_4 + x_74 + x_80 + x_82 + x_83 + x_86 + x_87 + x_88
   + x_90 + x_91 = 1
 cover_lg_50: y_50 + x_5 + x_12 + x_15 + x_16 + x_17 + x_18 + x_33 + x_34
   + x_39 + x_41 = 1
 cover_lg_51: y_51 + x_5 + x_12 + x_15 + x_16 + x_17 + x_18 + x_33 + x_34
   + x_39 + x_41 = 1
 cover_lg_52: y_52 + x_5 + x_115 = 1
 cover_lg_53: y_53 + x_5 + x_115 = 1
 cover_lg_54: y_54 + x_5 + x_17 + x_32 + x_38 + x_41 + x_43 + x_44 + x_47
   + x_65 + x_66 + x_97 + x_99 + x_102 + x_105 + x_106 + x_107 + x_109
   + x_115 + x_117 = 1
 cover_lg_55: y_55 + x_5 + x_17 + x_32 + x_38 + x_41 + x_43 + x_44 + x_47
   + x_65 + x_66 + x_97 + x_99 + x_102 + x_105 + x_106 + x_107 + x_109
   + x_115 + x_117 = 1
 cover_lg_56: y_56 + x_5 + x_9 + x_17 + x_20 + x_32 + x_38 + x_41 + x_43
   + x_47 = 1
 cover_lg_57: y_57 + x_5 + x_9 + x_17 + x_20 + x_32 + x_38 + x_41 + x_43
   + x_47 = 1
 cover_lg_58: y_58 + x_5 + x_17 + x_41 + x_63 + x_64 + x_94 + x_95 + x_106
   = 1
 cover_lg_59: y_59 + x_19 + x_20 + x_42 + x_43 + x_65 + x_66 + x_84 + x_85
   + x_108 + x_109 = 1
 cover_lg_60: y_60 + x_13 + x_23 + x_24 + x_27 + x_31 + x_32 + x_33 + x_34
   + x_35 + x_36 + x_37 + x_38 + x_39 + x_41 + x_44 + x_45 + x_46 + x_47
   + x_48 + x_79 + x_80 = 1
 cover_lg_61: y_61 + x_13 + x_23 + x_24 + x_27 + x_31 + x_32 + x_33 + x_34
   + x_35 + x_36 + x_37 + x_38 + x_39 + x_41 + x_44 + x_45 + x_46 + x_47
   + x_48 + x_79 + x_80 = 1
 cover_lg_62: y_62 + x_84 = 1
 cover_lg_63: y_63 + x_40 + x_49 + x_54 + x_55 + x_56 + x_61 + x_62 + x_63
   + x_67 + x_70 + x_71 + x_84 + x_92 + x_103 = 1
 cover_lg_64: y_64 + x_40 + x_49 + x_55 + x_56 + x_61 + x_62 + x_70 + x_71
   + x_79 + x_84 + x_92 + x_93 = 1
 cover_lg_65: y_65 + x_40 + x_49 + x_56 + x_61 + x_70 + x_75 + x_78 + x_79
   + x_84 + x_92 + x_93 = 1
 cover_lg_66: y_66 + x_19 + x_20 + x_42 + x_43 + x_65 + x_66 + x_84 + x_108
   + x_109 = 1
 cover_lg_67: y_67 = 1
 cover_lg_68: y_68 = 1
 cover_lg_69: y_69 + x_10 + x_15 + x_17 + x_21 + x_25 + x_27 + x_28 + x_31
   + x_32 + x_33 + x_34 + x_35 + x_36 + x_37 + x_38 + x_39 + x_41 + x_44
   + x_45 + x_46 + x_47 + x_48 + x_50 + x_51 + x_65 + x_77 + x_82 + x_95
   + x_87 + x_91 + x_96 + x_97 + x_99 + x_100 + x_101 + x_102 + x_104
   + x_105 + x_106 + x_107 + x_108 + x_109 + x_117 = 1
 cover_lg_70: y_70 + x_10 + x_15 + x_17 + x_21 + x_25 + x_27 + x_28 + x_31
   + x_32 + x_33 + x_34 + x_35 + x_36 + x_37 + x_38 + x_39 + x_41 + x_44
   + x_45 + x_46 + x_47 + x_48 + x_50 + x_51 + x_65 + x_77 + x_82 + x_95
   + x_87 + x_91 + x_96 + x_97 + x_99 + x_100 + x_101 + x_102 + x_104
   + x_105 + x_106 + x_107 + x_108 + x_109 + x_117 = 1
 cover_lg_71: y_71 + x_96 + x_100 + x_101 = 1
 cover_lg_72: y_72 + x_96 + x_100 + x_101 = 1
 cover_lg_73: y_73 + x_29 + x_30 + x_35 + x_36 + x_39 + x_40 + x_48 + x_49
   + x_50 + x_51 + x_75 + x_79 + x_92 + x_93 + x_105 + x_115 + x_117 = 1
 cover_lg_74: y_74 + x_29 + x_30 + x_35 + x_36 + x_39 + x_40 + x_48 + x_49
   + x_50 + x_51 + x_75 + x_79 + x_92 + x_93 + x_105 + x_115 + x_117 = 1
 cover_lg_75: y_75 + x_6 + x_54 + x_55 + x_67 + x_70 + x_71 = 1
 cover_lg_76: y_76 + x_6 + x_54 + x_55 + x_67 + x_70 + x_71 = 1
 cover_lg_77: y_77 + x_6 + x_54 + x_55 + x_67 + x_70 + x_71 = 1
 cover_lg_78: y_78 + x_6 + x_54 + x_55 + x_67 + x_70 + x_71 = 1
 cover_lg_79: y_79 + x_6 = 1
 cover_lg_80: y_80 + x_6 = 1
 cover_lg_81: y_81 + x_6 + x_18 + x_44 + x_45 + x_54 + x_59 + x_63 + x_65
   + x_66 + x_67 + x_68 + x_107 = 1
 cover_lg_82: y_82 + x_6 + x_44 + x_45 + x_54 + x_59 + x_63 + x_65 + x_66
   + x_67 + x_68 = 1
 cover_lg_83: y_83 + x_6 + x_21 + x_22 + x_23 + x_24 + x_44 + x_45 + x_46
   + x_47 + x_67 + x_68 + x_86 + x_87 + x_88 + x_89 + x_110 + x_111 + x_112
   + x_113 = 1
 cover_lg_84: y_84 + x_23 + x_24 + x_46 + x_47 + x_68 + x_69 + x_88 + x_89
   + x_112 + x_113 = 1
 cover_lg_85: y_85 = 1
 cover_lg_86: y_86 = 1
 cover_lg_87: y_87 = 1
 cover_lg_88: y_88 = 1
 cover_lg_89: y_89 + x_69 = 1
 cover_lg_90: y_90 + x_7 = 1
 cover_lg_91: y_91 + x_7 = 1
 cover_lg_92: y_92 + x_7 = 1
 cover_lg_93: y_93 + x_7 = 1
 cover_lg_94: y_94 + x_7 + x_60 + x_89 = 1
 select_ac_0: x_0 + x_8 + x_9 + x_29 + x_30 + x_52 + x_53 + x_74 + x_75
   + x_96 + x_97 <= 1
 select_ac_1: x_1 + x_10 + x_11 + x_31 + x_32 + x_54 + x_55 + x_76 + x_77
   + x_98 <= 1
 select_ac_2: x_2 + x_12 + x_33 + x_34 + x_56 + x_78 + x_99 + x_100 <= 1
 select_ac_3: x_3 + x_35 + x_36 + x_57 + x_58 + x_79 + x_80 + x_101 + x_102
   <= 1
 select_ac_4: x_13 + x_14 + x_37 + x_38 + x_59 + x_60 + x_81 + x_103 <= 1
 select_ac_5: x_4 + x_15 + x_16 + x_39 + x_40 + x_61 + x_62 + x_82 + x_83
   + x_104 + x_105 <= 1
 select_ac_6: x_5 + x_17 + x_18 + x_41 + x_63 + x_64 + x_94 + x_95 + x_106
   + x_107 <= 1
 select_ac_7: x_19 + x_20 + x_42 + x_43 + x_65 + x_66 + x_84 + x_85 + x_108
   + x_109 <= 1
 select_ac_8: x_6 + x_21 + x_22 + x_44 + x_45 + x_67 + x_86 + x_87 + x_110
   + x_111 <= 1
 select_ac_9: x_23 + x_24 + x_46 + x_47 + x_68 + x_69 + x_88 + x_89 + x_112
   + x_113 <= 1
 select_ac_10: x_7 + x_25 + x_26 + x_48 + x_49 + x_70 + x_71 + x_90 + x_91
   + x_114 + x_115 <= 1
 select_ac_11: x_27 + x_28 + x_50 + x_51 + x_72 + x_73 + x_92 + x_93
   + x_116 + x_117 <= 1
Bounds
 y_0 <= 1
 y_1 <= 1
 y_2 <= 1
 y_3 <= 1
 y_4 <= 1
 y_5 <= 1
 y_6 <= 1
 y_7 <= 1
 y_8 <= 1
 y_9 <= 1
 y_10 <= 1
 y_11 <= 1
 y_12 <= 1
 y_13 <= 1
 y_14 <= 1
 y_15 <= 1
 y_16 <= 1
 y_17 <= 1
 y_18 <= 1
 y_19 <= 1
 y_20 <= 1
 y_21 <= 1
 y_22 <= 1
 y_23 <= 1
 y_24 <= 1
 y_25 <= 1
 y_26 <= 1
 y_27 <= 1
 y_28 <= 1
 y_29 <= 1
 y_30 <= 1
 y_31 <= 1
 y_32 <= 1
 y_33 <= 1
 y_34 <= 1
 y_35 <= 1
 y_36 <= 1
 y_37 <= 1
 y_38 <= 1
 y_39 <= 1
 y_40 <= 1
 y_41 <= 1
 y_42 <= 1
 y_43 <= 1
 y_44 <= 1
 y_45 <= 1
 y_46 <= 1
 y_47 <= 1
 y_48 <= 1
 y_49 <= 1
 y_50 <= 1
 y_51 <= 1
 y_52 <= 1
 y_53 <= 1
 y_54 <= 1
 y_55 <= 1
 y_56 <= 1
 y_57 <= 1
 y_58 <= 1
 y_59 <= 1
 y_60 <= 1
 y_61 <= 1
 y_62 <= 1
 y_63 <= 1
 y_64 <= 1
 y_65 <= 1
 y_66 <= 1
 y_67 <= 1
 y_68 <= 1
 y_69 <= 1
 y_70 <= 1
 y_71 <= 1
 y_72 <= 1
 y_73 <= 1
 y_74 <= 1
 y_75 <= 1
 y_76 <= 1
 y_77 <= 1
 y_78 <= 1
 y_79 <= 1
 y_80 <= 1
 y_81 <= 1
 y_82 <= 1
 y_83 <= 1
 y_84 <= 1
 y_85 <= 1
 y_86 <= 1
 y_87 <= 1
 y_88 <= 1
 y_89 <= 1
 y_90 <= 1
 y_91 <= 1
 y_92 <= 1
 y_93 <= 1
 y_94 <= 1
 x_0 <= 1
 x_1 <= 1
 x_2 <= 1
 x_3 <= 1
 x_4 <= 1
 x_5 <= 1
 x_6 <= 1
 x_7 <= 1
 x_8 <= 1
 x_9 <= 1
 x_10 <= 1
 x_11 <= 1
 x_12 <= 1
 x_13 <= 1
 x_14 <= 1
 x_15 <= 1
 x_16 <= 1
 x_17 <= 1
 x_18 <= 1
 x_19 <= 1
 x_20 <= 1
 x_21 <= 1
 x_22 <= 1
 x_23 <= 1
 x_24 <= 1
 x_25 <= 1
 x_26 <= 1
 x_27 <= 1
 x_28 <= 1
 x_29 <= 1
 x_30 <= 1
 x_31 <= 1
 x_32 <= 1
 x_33 <= 1
 x_34 <= 1
 x_35 <= 1
 x_36 <= 1
 x_37 <= 1
 x_38 <= 1
 x_39 <= 1
 x_40 <= 1
 x_41 <= 1
 x_42 <= 1
 x_43 <= 1
 x_44 <= 1
 x_45 <= 1
 x_46 <= 1
 x_47 <= 1
 x_48 <= 1
 x_49 <= 1
 x_50 <= 1
 x_51 <= 1
 x_52 <= 1
 x_53 <= 1
 x_54 <= 1
 x_55 <= 1
 x_56 <= 1
 x_57 <= 1
 x_58 <= 1
 x_59 <= 1
 x_60 <= 1
 x_61 <= 1
 x_62 <= 1
 x_63 <= 1
 x_64 <= 1
 x_65 <= 1
 x_66 <= 1
 x_67 <= 1
 x_68 <= 1
 x_69 <= 1
 x_70 <= 1
 x_71 <= 1
 x_72 <= 1
 x_73 <= 1
 x_74 <= 1
 x_75 <= 1
 x_76 <= 1
 x_77 <= 1
 x_78 <= 1
 x_79 <= 1
 x_80 <= 1
 x_81 <= 1
 x_82 <= 1
 x_83 <= 1
 x_94 <= 1
 x_95 <= 1
 x_84 <= 1
 x_85 <= 1
 x_86 <= 1
 x_87 <= 1
 x_88 <= 1
 x_89 <= 1
 x_90 <= 1
 x_91 <= 1
 x_92 <= 1
 x_93 <= 1
 x_96 <= 1
 x_97 <= 1
 x_98 <= 1
 x_99 <= 1
 x_100 <= 1
 x_101 <= 1
 x_102 <= 1
 x_103 <= 1
 x_104 <= 1
 x_105 <= 1
 x_106 <= 1
 x_107 <= 1
 x_108 <= 1
 x_109 <= 1
 x_110 <= 1
 x_111 <= 1
 x_112 <= 1
 x_113 <= 1
 x_114 <= 1
 x_115 <= 1
 x_116 <= 1
 x_117 <= 1
End
